c PEQNP - www.peqnp.com
c contact@peqnp.science
c pip install PEQNP
p cnf 214 445
-1 -2 -3 -4 -5 -6 -7 -8 -9 -10 0
-9 11 0
9 -11 0
11 -12 0
-11 12 0
5 13 0
-5 -13 0
13 -14 0
-13 14 0
12 14 -15 0
-12 15 0
-14 15 0
-10 16 0
10 -16 0
16 -17 0
-16 17 0
15 17 -18 0
-15 18 0
-17 18 0
6 19 0
-6 -19 0
19 -20 0
-19 20 0
18 20 -21 0
-18 21 0
-20 21 0
-3 22 0
3 -22 0
22 -23 0
-22 23 0
21 23 -24 0
-21 24 0
-23 24 0
-24 -25 0
24 25 0
-25 0
25 -26 0
-6 27 0
6 -27 0
27 -28 0
-27 28 0
-8 29 0
8 -29 0
29 -30 0
-29 30 0
28 30 -31 0
-28 31 0
-30 31 0
-31 -32 0
31 32 0
-32 0
32 -33 0
-8 34 0
8 -34 0
34 -35 0
-34 35 0
-4 36 0
4 -36 0
36 -37 0
-36 37 0
35 37 -38 0
-35 38 0
-37 38 0
-38 -39 0
38 39 0
-39 0
39 -40 0
10 41 0
-10 -41 0
41 -42 0
-41 42 0
-5 43 0
5 -43 0
43 -44 0
-43 44 0
42 44 -45 0
-42 45 0
-44 45 0
-45 -46 0
45 46 0
-46 0
46 -47 0
9 48 0
-9 -48 0
48 -49 0
-48 49 0
-8 50 0
8 -50 0
50 -51 0
-50 51 0
49 51 -52 0
-49 52 0
-51 52 0
-52 -53 0
52 53 0
-53 0
53 -54 0
9 55 0
-9 -55 0
55 -56 0
-55 56 0
3 57 0
-3 -57 0
57 -58 0
-57 58 0
56 58 -59 0
-56 59 0
-58 59 0
-59 -60 0
59 60 0
-60 0
60 -61 0
2 62 0
-2 -62 0
62 -63 0
-62 63 0
-5 64 0
5 -64 0
64 -65 0
-64 65 0
63 65 -66 0
-63 66 0
-65 66 0
-66 -67 0
66 67 0
-67 0
67 -68 0
-6 69 0
6 -69 0
69 -70 0
-69 70 0
-4 71 0
4 -71 0
71 -72 0
-71 72 0
70 72 -73 0
-70 73 0
-72 73 0
-73 -74 0
73 74 0
-74 0
74 -75 0
2 76 0
-2 -76 0
76 -77 0
-76 77 0
1 78 0
-1 -78 0
78 -79 0
-78 79 0
77 79 -80 0
-77 80 0
-79 80 0
-80 -81 0
80 81 0
-81 0
81 -82 0
-7 83 0
7 -83 0
83 -84 0
-83 84 0
2 85 0
-2 -85 0
85 -86 0
-85 86 0
84 86 -87 0
-84 87 0
-86 87 0
-87 -88 0
87 88 0
-88 0
88 -89 0
9 90 0
-9 -90 0
90 -91 0
-90 91 0
-4 92 0
4 -92 0
92 -93 0
-92 93 0
91 93 -94 0
-91 94 0
-93 94 0
-94 -95 0
94 95 0
-95 0
95 -96 0
1 97 0
-1 -97 0
97 -98 0
-97 98 0
10 99 0
-10 -99 0
99 -100 0
-99 100 0
98 100 -101 0
-98 101 0
-100 101 0
-101 -102 0
101 102 0
-102 0
102 -103 0
3 104 0
-3 -104 0
104 -105 0
-104 105 0
-4 106 0
4 -106 0
106 -107 0
-106 107 0
105 107 -108 0
-105 108 0
-107 108 0
-108 -109 0
108 109 0
-109 0
109 -110 0
-7 111 0
7 -111 0
111 -112 0
-111 112 0
-5 113 0
5 -113 0
113 -114 0
-113 114 0
112 114 -115 0
-112 115 0
-114 115 0
-115 -116 0
115 116 0
-116 0
116 -117 0
-6 118 0
6 -118 0
118 -119 0
-118 119 0
3 120 0
-3 -120 0
120 -121 0
-120 121 0
119 121 -122 0
-119 122 0
-121 122 0
-122 -123 0
122 123 0
-123 0
123 -124 0
10 125 0
-10 -125 0
125 -126 0
-125 126 0
-7 127 0
7 -127 0
127 -128 0
-127 128 0
126 128 -129 0
-126 129 0
-128 129 0
-129 -130 0
129 130 0
-130 0
130 -131 0
1 132 0
-1 -132 0
132 -133 0
-132 133 0
-7 134 0
7 -134 0
134 -135 0
-134 135 0
133 135 -136 0
-133 136 0
-135 136 0
-136 -137 0
136 137 0
-137 0
137 -138 0
-8 139 0
8 -139 0
139 -140 0
-139 140 0
3 141 0
-3 -141 0
141 -142 0
-141 142 0
140 142 -143 0
-140 143 0
-142 143 0
-143 -144 0
143 144 0
-144 0
144 -145 0
2 146 0
-2 -146 0
146 -147 0
-146 147 0
10 148 0
-10 -148 0
148 -149 0
-148 149 0
147 149 -150 0
-147 150 0
-149 150 0
-150 -151 0
150 151 0
-151 0
151 -152 0
1 153 0
-1 -153 0
153 -154 0
-153 154 0
-5 155 0
5 -155 0
155 -156 0
-155 156 0
154 156 -157 0
-154 157 0
-156 157 0
-157 -158 0
157 158 0
-158 0
158 -159 0
7 160 0
-7 -160 0
160 -161 0
-160 161 0
-1 162 0
1 -162 0
162 -163 0
-162 163 0
161 163 -164 0
-161 164 0
-163 164 0
-9 165 0
9 -165 0
165 -166 0
-165 166 0
164 166 -167 0
-164 167 0
-166 167 0
6 168 0
-6 -168 0
168 -169 0
-168 169 0
167 169 -170 0
-167 170 0
-169 170 0
-3 171 0
3 -171 0
171 -172 0
-171 172 0
170 172 -173 0
-170 173 0
-172 173 0
-173 -174 0
173 174 0
-174 0
174 -175 0
9 176 0
-9 -176 0
176 -177 0
-176 177 0
-6 178 0
6 -178 0
178 -179 0
-178 179 0
177 179 -180 0
-177 180 0
-179 180 0
-180 -181 0
180 181 0
-181 0
181 -182 0
8 183 0
-8 -183 0
183 -184 0
-183 184 0
-10 185 0
10 -185 0
185 -186 0
-185 186 0
184 186 -187 0
-184 187 0
-186 187 0
5 188 0
-5 -188 0
188 -189 0
-188 189 0
187 189 -190 0
-187 190 0
-189 190 0
4 191 0
-4 -191 0
191 -192 0
-191 192 0
190 192 -193 0
-190 193 0
-192 193 0
-2 194 0
2 -194 0
194 -195 0
-194 195 0
193 195 -196 0
-193 196 0
-195 196 0
-196 -197 0
196 197 0
-197 0
197 -198 0
4 199 0
-4 -199 0
199 -200 0
-199 200 0
7 201 0
-7 -201 0
201 -202 0
-201 202 0
200 202 -203 0
-200 203 0
-202 203 0
-1 204 0
1 -204 0
204 -205 0
-204 205 0
203 205 -206 0
-203 206 0
-205 206 0
8 207 0
-8 -207 0
207 -208 0
-207 208 0
206 208 -209 0
-206 209 0
-208 209 0
-2 210 0
2 -210 0
210 -211 0
-210 211 0
209 211 -212 0
-209 212 0
-211 212 0
-212 -213 0
212 213 0
-213 0
213 -214 0
c {'x': [1, 2, 3, 4, 5, 6, 7, 8, 9, 10]}
1 -2 -3 -4 -5 -6 -7 -8 9 10 11 12 13 14 15 16 17 18 19 20 21 -22 -23 -24 25 26 -27 -28 -29 -30 -31 32 33 -34 -35 -36 -37 -38 39 40 -41 -42 -43 -44 -45 46 47 -48 -49 -50 -51 -52 53 54 -55 -56 57 58 -59 60 61 62 63 -64 -65 -66 67 68 -69 -70 -71 -72 -73 74 75 76 77 -78 -79 -80 81 82 -83 -84 85 86 -87 88 89 -90 -91 -92 -93 -94 95 96 -97 -98 -99 -100 -101 102 103 104 105 -106 -107 -108 109 110 -111 -112 -113 -114 -115 116 117 -118 -119 120 121 -122 123 124 -125 -126 -127 -128 -129 130 131 -132 -133 -134 -135 -136 137 138 -139 -140 141 142 -143 144 145 146 147 -148 -149 -150 151 152 -153 -154 -155 -156 -157 158 159 160 161 162 163 164 165 166 167 168 169 170 -171 -172 -173 174 175 -176 -177 -178 -179 -180 181 182 183 184 185 186 187 188 189 190 191 192 193 -194 -195 -196 197 198 199 200 201 202 203 204 205 206 207 208 209 -210 -211 -212 213 214 0
